c nIsolatedPIs 0
c maxPI 12
p cnf 196 553
c gate 13 1 7 0
1 -13 0
7 -13 0
-1 -7 13 0
c gate 14 2 6 0
2 -14 0
6 -14 0
-2 -6 14 0
c gate 15 3 5 0
3 -15 0
5 -15 0
-3 -5 15 0
c gate 16 -14 -15 0
-14 -16 0
-15 -16 0
14 15 16 0
c gate 17 13 -16 0
13 -17 0
-16 -17 0
-13 16 17 0
c gate 18 -13 16 0
-13 -18 0
16 -18 0
13 -16 18 0
c gate 19 -17 -18 0
-17 -19 0
-18 -19 0
17 18 19 0
c gate 20 11 19 0
11 -20 0
19 -20 0
-11 -19 20 0
c gate 21 1 6 0
1 -21 0
6 -21 0
-1 -6 21 0
c gate 22 2 5 0
2 -22 0
5 -22 0
-2 -5 22 0
c gate 23 -21 -22 0
-21 -23 0
-22 -23 0
21 22 23 0
c gate 24 10 -23 0
10 -24 0
-23 -24 0
-10 23 24 0
c gate 25 1 5 0
1 -25 0
5 -25 0
-1 -5 25 0
c gate 26 9 25 0
9 -26 0
25 -26 0
-9 -25 26 0
c gate 27 -10 23 0
-10 -27 0
23 -27 0
10 -23 27 0
c gate 28 -24 -27 0
-24 -28 0
-27 -28 0
24 27 28 0
c gate 29 26 28 0
26 -29 0
28 -29 0
-26 -28 29 0
c gate 30 -24 -29 0
-24 -30 0
-29 -30 0
24 29 30 0
c gate 31 -11 -19 0
-11 -31 0
-19 -31 0
11 19 31 0
c gate 32 -20 -31 0
-20 -32 0
-31 -32 0
20 31 32 0
c gate 33 -30 32 0
-30 -33 0
32 -33 0
30 -32 33 0
c gate 34 -20 -33 0
-20 -34 0
-33 -34 0
20 33 34 0
c gate 35 1 8 0
1 -35 0
8 -35 0
-1 -8 35 0
c gate 36 2 7 0
2 -36 0
7 -36 0
-2 -7 36 0
c gate 37 3 6 0
3 -37 0
6 -37 0
-3 -6 37 0
c gate 38 4 5 0
4 -38 0
5 -38 0
-4 -5 38 0
c gate 39 -37 -38 0
-37 -39 0
-38 -39 0
37 38 39 0
c gate 40 -36 39 0
-36 -40 0
39 -40 0
36 -39 40 0
c gate 41 17 -40 0
17 -41 0
-40 -41 0
-17 40 41 0
c gate 42 -17 40 0
-17 -42 0
40 -42 0
17 -40 42 0
c gate 43 -41 -42 0
-41 -43 0
-42 -43 0
41 42 43 0
c gate 44 35 43 0
35 -44 0
43 -44 0
-35 -43 44 0
c gate 45 -35 -43 0
-35 -45 0
-43 -45 0
35 43 45 0
c gate 46 -44 -45 0
-44 -46 0
-45 -46 0
44 45 46 0
c gate 47 12 46 0
12 -47 0
46 -47 0
-12 -46 47 0
c gate 48 -12 -46 0
-12 -48 0
-46 -48 0
12 46 48 0
c gate 49 -47 -48 0
-47 -49 0
-48 -49 0
47 48 49 0
c gate 50 -34 49 0
-34 -50 0
49 -50 0
34 -49 50 0
c gate 51 34 -49 0
34 -51 0
-49 -51 0
-34 49 51 0
c gate 52 -50 -51 0
-50 -52 0
-51 -52 0
50 51 52 0
c gate 53 21 22 0
21 -53 0
22 -53 0
-21 -22 53 0
c gate 54 14 15 0
14 -54 0
15 -54 0
-14 -15 54 0
c gate 55 -13 54 0
-13 -55 0
54 -55 0
13 -54 55 0
c gate 56 -19 -54 0
-19 -56 0
-54 -56 0
19 54 56 0
c gate 57 -55 -56 0
-55 -57 0
-56 -57 0
55 56 57 0
c gate 58 53 57 0
53 -58 0
57 -58 0
-53 -57 58 0
c gate 59 37 38 0
37 -59 0
38 -59 0
-37 -38 59 0
c gate 60 -39 -59 0
-39 -60 0
-59 -60 0
39 59 60 0
c gate 61 36 60 0
36 -61 0
60 -61 0
-36 -60 61 0
c gate 62 -36 -60 0
-36 -62 0
-60 -62 0
36 60 62 0
c gate 63 -61 -62 0
-61 -63 0
-62 -63 0
61 62 63 0
c gate 64 -17 -54 0
-17 -64 0
-54 -64 0
17 54 64 0
c gate 65 63 -64 0
63 -65 0
-64 -65 0
-63 64 65 0
c gate 66 -63 64 0
-63 -66 0
64 -66 0
63 -64 66 0
c gate 67 -65 -66 0
-65 -67 0
-66 -67 0
65 66 67 0
c gate 68 35 67 0
35 -68 0
67 -68 0
-35 -67 68 0
c gate 69 -35 -67 0
-35 -69 0
-67 -69 0
35 67 69 0
c gate 70 -68 -69 0
-68 -70 0
-69 -70 0
68 69 70 0
c gate 71 58 70 0
58 -71 0
70 -71 0
-58 -70 71 0
c gate 72 -58 -70 0
-58 -72 0
-70 -72 0
58 70 72 0
c gate 73 -71 -72 0
-71 -73 0
-72 -73 0
71 72 73 0
c gate 74 12 73 0
12 -74 0
73 -74 0
-12 -73 74 0
c gate 75 -12 -73 0
-12 -75 0
-73 -75 0
12 73 75 0
c gate 76 -74 -75 0
-74 -76 0
-75 -76 0
74 75 76 0
c gate 77 -53 -57 0
-53 -77 0
-57 -77 0
53 57 77 0
c gate 78 -58 -77 0
-58 -78 0
-77 -78 0
58 77 78 0
c gate 79 11 78 0
11 -79 0
78 -79 0
-11 -78 79 0
c gate 80 -11 -78 0
-11 -80 0
-78 -80 0
11 78 80 0
c gate 81 -79 -80 0
-79 -81 0
-80 -81 0
79 80 81 0
c gate 82 -26 -28 0
-26 -82 0
-28 -82 0
26 28 82 0
c gate 83 -29 -82 0
-29 -83 0
-82 -83 0
29 82 83 0
c gate 84 53 -83 0
53 -84 0
-83 -84 0
-53 83 84 0
c gate 85 -30 -84 0
-30 -85 0
-84 -85 0
30 84 85 0
c gate 86 81 85 0
81 -86 0
85 -86 0
-81 -85 86 0
c gate 87 -79 -86 0
-79 -87 0
-86 -87 0
79 86 87 0
c gate 88 76 -87 0
76 -88 0
-87 -88 0
-76 87 88 0
c gate 89 -76 87 0
-76 -89 0
87 -89 0
76 -87 89 0
c gate 90 -88 -89 0
-88 -90 0
-89 -90 0
88 89 90 0
c gate 91 52 -90 0
52 -91 0
-90 -91 0
-52 90 91 0
c gate 92 -52 90 0
-52 -92 0
90 -92 0
52 -90 92 0
c gate 93 -91 -92 0
-91 -93 0
-92 -93 0
91 92 93 0
c gate 94 30 -32 0
30 -94 0
-32 -94 0
-30 32 94 0
c gate 95 -33 -94 0
-33 -95 0
-94 -95 0
33 94 95 0
c gate 96 -81 -85 0
-81 -96 0
-85 -96 0
81 85 96 0
c gate 97 -86 -96 0
-86 -97 0
-96 -97 0
86 96 97 0
c gate 98 95 -97 0
95 -98 0
-97 -98 0
-95 97 98 0
c gate 99 -95 97 0
-95 -99 0
97 -99 0
95 -97 99 0
c gate 100 -84 -99 0
-84 -100 0
-99 -100 0
84 99 100 0
c gate 101 -98 -100 0
-98 -101 0
-100 -101 0
98 100 101 0
c gate 102 3 8 0
3 -102 0
8 -102 0
-3 -8 102 0
c gate 103 4 7 0
4 -103 0
7 -103 0
-4 -7 103 0
c gate 104 -37 103 0
-37 -104 0
103 -104 0
37 -103 104 0
c gate 105 102 -104 0
102 -105 0
-104 -105 0
-102 104 105 0
c gate 106 -102 104 0
-102 -106 0
104 -106 0
102 -104 106 0
c gate 107 -105 -106 0
-105 -107 0
-106 -107 0
105 106 107 0
c gate 108 -59 -61 0
-59 -108 0
-61 -108 0
59 61 108 0
c gate 109 4 6 0
4 -109 0
6 -109 0
-4 -6 109 0
c gate 110 3 7 0
3 -110 0
7 -110 0
-3 -7 110 0
c gate 111 -109 -110 0
-109 -111 0
-110 -111 0
109 110 111 0
c gate 112 109 110 0
109 -112 0
110 -112 0
-109 -110 112 0
c gate 113 -111 -112 0
-111 -113 0
-112 -113 0
111 112 113 0
c gate 114 -108 113 0
-108 -114 0
113 -114 0
108 -113 114 0
c gate 115 2 8 0
2 -115 0
8 -115 0
-2 -8 115 0
c gate 116 108 -113 0
108 -116 0
-113 -116 0
-108 113 116 0
c gate 117 -114 -116 0
-114 -117 0
-116 -117 0
114 116 117 0
c gate 118 115 117 0
115 -118 0
117 -118 0
-115 -117 118 0
c gate 119 -114 -118 0
-114 -119 0
-118 -119 0
114 118 119 0
c gate 120 -107 -119 0
-107 -120 0
-119 -120 0
107 119 120 0
c gate 121 -65 -68 0
-65 -121 0
-68 -121 0
65 68 121 0
c gate 122 -115 -117 0
-115 -122 0
-117 -122 0
115 117 122 0
c gate 123 -118 -122 0
-118 -123 0
-122 -123 0
118 122 123 0
c gate 124 -121 123 0
-121 -124 0
123 -124 0
121 -123 124 0
c gate 125 121 -123 0
121 -125 0
-123 -125 0
-121 123 125 0
c gate 126 -124 -125 0
-124 -126 0
-125 -126 0
124 125 126 0
c gate 127 71 126 0
71 -127 0
126 -127 0
-71 -126 127 0
c gate 128 -124 -127 0
-124 -128 0
-127 -128 0
124 127 128 0
c gate 129 107 119 0
107 -129 0
119 -129 0
-107 -119 129 0
c gate 130 -120 -129 0
-120 -130 0
-129 -130 0
120 129 130 0
c gate 131 -128 130 0
-128 -131 0
130 -131 0
128 -130 131 0
c gate 132 -120 -131 0
-120 -132 0
-131 -132 0
120 131 132 0
c gate 133 4 8 0
4 -133 0
8 -133 0
-4 -8 133 0
c gate 134 -110 133 0
-110 -134 0
133 -134 0
110 -133 134 0
c gate 135 -8 112 0
-8 -135 0
112 -135 0
8 -112 135 0
c gate 136 -134 -135 0
-134 -136 0
-135 -136 0
134 135 136 0
c gate 137 -132 -136 0
-132 -137 0
-136 -137 0
132 136 137 0
c gate 138 132 136 0
132 -138 0
136 -138 0
-132 -136 138 0
c gate 139 -137 -138 0
-137 -139 0
-138 -139 0
137 138 139 0
c gate 140 -71 -126 0
-71 -140 0
-126 -140 0
71 126 140 0
c gate 141 -127 -140 0
-127 -141 0
-140 -141 0
127 140 141 0
c gate 142 -74 -88 0
-74 -142 0
-88 -142 0
74 88 142 0
c gate 143 141 -142 0
141 -143 0
-142 -143 0
-141 142 143 0
c gate 144 128 -130 0
128 -144 0
-130 -144 0
-128 130 144 0
c gate 145 -131 -144 0
-131 -145 0
-144 -145 0
131 144 145 0
c gate 146 143 145 0
143 -146 0
145 -146 0
-143 -145 146 0
c gate 147 139 146 0
139 -147 0
146 -147 0
-139 -146 147 0
c gate 148 -139 -146 0
-139 -148 0
-146 -148 0
139 146 148 0
c gate 149 -147 -148 0
-147 -149 0
-148 -149 0
147 148 149 0
c gate 150 -41 -44 0
-41 -150 0
-44 -150 0
41 44 150 0
c gate 151 111 -115 0
111 -151 0
-115 -151 0
-111 115 151 0
c gate 152 -150 -151 0
-150 -152 0
-151 -152 0
150 151 152 0
c gate 153 150 151 0
150 -153 0
151 -153 0
-150 -151 153 0
c gate 154 -152 -153 0
-152 -154 0
-153 -154 0
152 153 154 0
c gate 155 -47 -50 0
-47 -155 0
-50 -155 0
47 50 155 0
c gate 156 154 -155 0
154 -156 0
-155 -156 0
-154 155 156 0
c gate 157 -152 -156 0
-152 -157 0
-156 -157 0
152 156 157 0
c gate 158 -107 -157 0
-107 -158 0
-157 -158 0
107 157 158 0
c gate 159 -134 -158 0
-134 -159 0
-158 -159 0
134 158 159 0
c gate 160 -149 -159 0
-149 -160 0
-159 -160 0
149 159 160 0
c gate 161 107 157 0
107 -161 0
157 -161 0
-107 -157 161 0
c gate 162 -158 -161 0
-158 -162 0
-161 -162 0
158 161 162 0
c gate 163 -143 -145 0
-143 -163 0
-145 -163 0
143 145 163 0
c gate 164 -146 -163 0
-146 -164 0
-163 -164 0
146 163 164 0
c gate 165 162 -164 0
162 -165 0
-164 -165 0
-162 164 165 0
c gate 166 -162 164 0
-162 -166 0
164 -166 0
162 -164 166 0
c gate 167 -154 155 0
-154 -167 0
155 -167 0
154 -155 167 0
c gate 168 -156 -167 0
-156 -168 0
-167 -168 0
156 167 168 0
c gate 169 -141 142 0
-141 -169 0
142 -169 0
141 -142 169 0
c gate 170 -143 -169 0
-143 -170 0
-169 -170 0
143 169 170 0
c gate 171 168 -170 0
168 -171 0
-170 -171 0
-168 170 171 0
c gate 172 -168 170 0
-168 -172 0
170 -172 0
168 -170 172 0
c gate 173 -92 -101 0
-92 -173 0
-101 -173 0
92 101 173 0
c gate 174 -91 -173 0
-91 -174 0
-173 -174 0
91 173 174 0
c gate 175 -172 -174 0
-172 -175 0
-174 -175 0
172 174 175 0
c gate 176 -171 -175 0
-171 -176 0
-175 -176 0
171 175 176 0
c gate 177 -166 -176 0
-166 -177 0
-176 -177 0
166 176 177 0
c gate 178 -165 -177 0
-165 -178 0
-177 -178 0
165 177 178 0
c gate 179 -160 178 0
-160 -179 0
178 -179 0
160 -178 179 0
c gate 180 149 159 0
149 -180 0
159 -180 0
-149 -159 180 0
c gate 181 -107 152 0
-107 -181 0
152 -181 0
107 -152 181 0
c gate 182 -110 -181 0
-110 -182 0
-181 -182 0
110 181 182 0
c gate 183 133 -182 0
133 -183 0
-182 -183 0
-133 182 183 0
c gate 184 -137 -147 0
-137 -184 0
-147 -184 0
137 147 184 0
c gate 185 -183 -184 0
-183 -185 0
-184 -185 0
183 184 185 0
c gate 186 -180 -185 0
-180 -186 0
-185 -186 0
180 185 186 0
c gate 187 -179 186 0
-179 -187 0
186 -187 0
179 -186 187 0
c gate 188 -101 187 0
-101 -188 0
187 -188 0
101 -187 188 0
c gate 189 53 83 0
53 -189 0
83 -189 0
-53 -83 189 0
c gate 190 -98 -189 0
-98 -190 0
-189 -190 0
98 189 190 0
c gate 191 -99 -190 0
-99 -191 0
-190 -191 0
99 190 191 0
c gate 192 -187 -191 0
-187 -192 0
-191 -192 0
187 191 192 0
c gate 193 -188 -192 0
-188 -193 0
-192 -193 0
188 192 193 0
c gate 194 93 -193 0
93 -194 0
-193 -194 0
-93 193 194 0
c gate 195 -93 193 0
-93 -195 0
193 -195 0
93 -193 195 0
c gate 196 -194 -195 0
-194 -196 0
-195 -196 0
194 195 196 0
c PO
196 0
